TITLE : Beam patch test 1
        (23:11:12 on May 26, 2019, Sunday)

C O N T R O L   I N F O R M A T I O N

      NUMBER OF NODAL POINTS . . . . . . . . . . (NUMNP)  =     5
      NUMBER OF ELEMENT GROUPS . . . . . . . . . (NUMEG)  =     1
      NUMBER OF LOAD CASES . . . . . . . . . . . (NLCASE) =     1
      SOLUTION MODE  . . . . . . . . . . . . . . (MODEX)  =     1
         EQ.0, DATA CHECK
         EQ.1, EXECUTION

 N O D A L   P O I N T   D A T A

    NODE       BOUNDARY                         NODAL POINT
   NUMBER  CONDITION  CODES                     COORDINATES
        1    1    1    1       0.00000e+00    0.00000e+00    0.00000e+00
        2    0    0    0       2.00000e+00    0.00000e+00    0.00000e+00
        3    0    0    0       3.00000e+00    0.00000e+00    0.00000e+00
        4    0    0    0       6.00000e+00    0.00000e+00    0.00000e+00
        5    0    1    1       1.00000e+01    0.00000e+00    0.00000e+00

 L O A D   C A S E   D A T A

     LOAD CASE NUMBER . . . . . . . =     1
     NUMBER OF CONCENTRATED LOADS . =     2

    NODE       DIRECTION      LOAD
   NUMBER                   MAGNITUDE
      1            6       -1.00000e+02
      5            6        1.00000e+02

 E L E M E N T   G R O U P   D A T A


 E L E M E N T   D E F I N I T I O N

 ELEMENT TYPE  . . . . . . . . . . . . .( NPAR(1) ) . . =    5
     EQ.1, TRUSS ELEMENTS
     EQ.2, ELEMENTS CURRENTLY
     EQ.3, NOT AVAILABLE

 NUMBER OF ELEMENTS. . . . . . . . . . .( NPAR(2) ) . . =    4

 M A T E R I A L   D E F I N I T I O N

 NUMBER OF DIFFERENT SETS OF MATERIAL
 AND CROSS-SECTIONAL  CONSTANTS  . . . .( NPAR(3) ) . . =    1

  SET       YOUNG'S        POISSON			Cross-Section Property
 NUMBER     MODULUS         RATIO
               E              Nu              a              b
    1     1.00000e+06     3.00000e-01     2.00000e+00     2.00000e+00


 E L E M E N T   I N F O R M A T I O N
 ELEMENT     NODE     NODE     MATERIAL
 NUMBER-N      I       II      SET NUMBER
    1          1        2           1
    2          2        3           1
    3          3        4           1
    4          4        5           1

 EQUATION NUMBERS

   NODE NUMBER   DEGREES OF FREEDOM
        N           X    Y    Z
        1           0    0    0    0    1    2
        2           3    4    5    0    0    0
        3           6    7    8    0    0    0
        4           9   10   11    0    0    0
        5          12    0    0    0    0    0

	TOTAL SYSTEM DATA

     NUMBER OF EQUATIONS . . . . . . . . . . . . . .(NEQ) = 12
     NUMBER OF MATRIX ELEMENTS . . . . . . . . . . .(NWK) = 49
     MAXIMUM HALF BANDWIDTH  . . . . . . . . . . . .(MK ) = 6
     MEAN HALF BANDWIDTH . . . . . . . . . . . . . .(MM ) = 4


 LOAD CASE    1


 D I S P L A C E M E N T S

  NODE           X-DISPLACEMENT    Y-DISPLACEMENT    Z-DISPLACEMENT
    1               0.00000e+00       0.00000e+00       0.00000e+00       0.00000e+00       0.00000e+00      -3.51753e-04
    2               0.00000e+00      -3.23612e-04       0.00000e+00       0.00000e+00       0.00000e+00       0.00000e+00
    3               0.00000e+00      -3.20095e-04       0.00000e+00       0.00000e+00       0.00000e+00       0.00000e+00
    4               0.00000e+00      -2.25122e-04       0.00000e+00       0.00000e+00       0.00000e+00       0.00000e+00
    5               0.00000e+00       0.00000e+00       0.00000e+00       0.00000e+00       0.00000e+00       0.00000e+00

 S T R E S S  C A L C U L A T I O N S  F O R  E L E M E N T  G R O U P    1

 Element		Sxx			Syy			Szz
 Number 
    1           0.00000e+00           0.00000e+00           0.00000e+00
    2           0.00000e+00           0.00000e+00           0.00000e+00
    3           0.00000e+00           0.00000e+00           0.00000e+00
    4           0.00000e+00           0.00000e+00           0.00000e+00


 S O L U T I O N   T I M E   L O G   I N   S E C 

     TIME FOR INPUT PHASE = 1.08000e+00
     TIME FOR CALCULATION OF STIFFNESS MATRIX = 6.00000e-03
     TIME FOR FACTORIZATION AND LOAD CASE SOLUTIONS = 2.80000e-02

     T O T A L   S O L U T I O N   T I M E = 1.41200e+00
