TITLE : 8H patch test
        (23:15:31 on May 26, 2019, Sunday)

C O N T R O L   I N F O R M A T I O N

      NUMBER OF NODAL POINTS . . . . . . . . . . (NUMNP)  =    16
      NUMBER OF ELEMENT GROUPS . . . . . . . . . (NUMEG)  =     1
      NUMBER OF LOAD CASES . . . . . . . . . . . (NLCASE) =     1
      SOLUTION MODE  . . . . . . . . . . . . . . (MODEX)  =     1
         EQ.0, DATA CHECK
         EQ.1, EXECUTION

 N O D A L   P O I N T   D A T A

    NODE       BOUNDARY                         NODAL POINT
   NUMBER  CONDITION  CODES                     COORDINATES
        1    0    1    1       5.00000e+00    0.00000e+00    0.00000e+00
        2    0    0    1       5.00000e+00    5.00000e+00    0.00000e+00
        3    0    0    1       0.00000e+00    5.00000e+00    0.00000e+00
        4    1    1    1       0.00000e+00    0.00000e+00    0.00000e+00
        5    0    0    0       5.00000e+00    0.00000e+00    5.00000e+00
        6    0    0    0       5.00000e+00    5.00000e+00    5.00000e+00
        7    0    0    0       0.00000e+00    5.00000e+00    5.00000e+00
        8    0    0    0       0.00000e+00    0.00000e+00    5.00000e+00
        9    0    0    0       3.00000e+00    1.00000e+00    1.00000e+00
       10    0    0    0       3.00000e+00    3.00000e+00    2.00000e+00
       11    0    0    0       1.00000e+00    3.00000e+00    1.00000e+00
       12    0    0    0       1.00000e+00    1.00000e+00    1.00000e+00
       13    0    0    0       3.00000e+00    1.00000e+00    3.00000e+00
       14    0    0    0       3.00000e+00    3.00000e+00    3.00000e+00
       15    0    0    0       1.00000e+00    3.00000e+00    3.00000e+00
       16    0    0    0       1.00000e+00    1.00000e+00    3.00000e+00

 L O A D   C A S E   D A T A

     LOAD CASE NUMBER . . . . . . . =     1
     NUMBER OF CONCENTRATED LOADS . =     4

    NODE       DIRECTION      LOAD
   NUMBER                   MAGNITUDE
      5            3        2.50000e+02
      6            3        2.50000e+02
      7            3        2.50000e+02
      8            3        2.50000e+02

 E L E M E N T   G R O U P   D A T A


 E L E M E N T   D E F I N I T I O N

 ELEMENT TYPE  . . . . . . . . . . . . .( NPAR(1) ) . . =    4
     EQ.1, TRUSS ELEMENTS
     EQ.2, ELEMENTS CURRENTLY
     EQ.3, NOT AVAILABLE

 NUMBER OF ELEMENTS. . . . . . . . . . .( NPAR(2) ) . . =    7

 M A T E R I A L   D E F I N I T I O N

 NUMBER OF DIFFERENT SETS OF MATERIAL
 AND CROSS-SECTIONAL  CONSTANTS  . . . .( NPAR(3) ) . . =    1

  SET       YOUNG'S         POSSION
 NUMBER     MODULUS          RATIO
               E              NU
    1     1.00000e+06     2.00000e-01


 E L E M E N T   I N F O R M A T I O N
 ELEMENT     NODE     NODE     NODE     NODE     NODE     NODE     NODE     NODE       MATERIAL
 NUMBER-N      0        1        2        3        4        5        6        7       SET NUMBER
    1          1        2        3        4        9       10       11       12           1
    2         10        2        3       11       14        6        7       15           1
    3          9       10       11       12       13       14       15       16           1
    4          1        9       12        4        5       13       16        8           1
    5          1        2       10        9        5        6       14       13           1
    6         13       14       15       16        5        6        7        8           1
    7         12       11        3        4       16       15        7        8           1

 EQUATION NUMBERS

   NODE NUMBER   DEGREES OF FREEDOM
        N           X    Y    Z
        1           1    0    0    0    0    0
        2           2    3    0    0    0    0
        3           4    5    0    0    0    0
        4           0    0    0    0    0    0
        5           6    7    8    0    0    0
        6           9   10   11    0    0    0
        7          12   13   14    0    0    0
        8          15   16   17    0    0    0
        9          18   19   20    0    0    0
       10          21   22   23    0    0    0
       11          24   25   26    0    0    0
       12          27   28   29    0    0    0
       13          30   31   32    0    0    0
       14          33   34   35    0    0    0
       15          36   37   38    0    0    0
       16          39   40   41    0    0    0

	TOTAL SYSTEM DATA

     NUMBER OF EQUATIONS . . . . . . . . . . . . . .(NEQ) = 41
     NUMBER OF MATRIX ELEMENTS . . . . . . . . . . .(NWK) = 855
     MAXIMUM HALF BANDWIDTH  . . . . . . . . . . . .(MK ) = 41
     MEAN HALF BANDWIDTH . . . . . . . . . . . . . .(MM ) = 20


 LOAD CASE    1


 D I S P L A C E M E N T S

  NODE           X-DISPLACEMENT    Y-DISPLACEMENT    Z-DISPLACEMENT
    1              -4.00000e-05       0.00000e+00       0.00000e+00       0.00000e+00       0.00000e+00       0.00000e+00
    2              -4.00000e-05      -4.00000e-05       0.00000e+00       0.00000e+00       0.00000e+00       0.00000e+00
    3              -1.16891e-19      -4.00000e-05       0.00000e+00       0.00000e+00       0.00000e+00       0.00000e+00
    4               0.00000e+00       0.00000e+00       0.00000e+00       0.00000e+00       0.00000e+00       0.00000e+00
    5              -4.00000e-05       6.09864e-20       2.00000e-04       0.00000e+00       0.00000e+00       0.00000e+00
    6              -4.00000e-05      -4.00000e-05       2.00000e-04       0.00000e+00       0.00000e+00       0.00000e+00
    7              -1.57548e-19      -4.00000e-05       2.00000e-04       0.00000e+00       0.00000e+00       0.00000e+00
    8              -1.15874e-19      -9.82558e-20       2.00000e-04       0.00000e+00       0.00000e+00       0.00000e+00
    9              -2.40000e-05      -8.00000e-06       4.00000e-05       0.00000e+00       0.00000e+00       0.00000e+00
   10              -2.40000e-05      -2.40000e-05       8.00000e-05       0.00000e+00       0.00000e+00       0.00000e+00
   11              -8.00000e-06      -2.40000e-05       4.00000e-05       0.00000e+00       0.00000e+00       0.00000e+00
   12              -8.00000e-06      -8.00000e-06       4.00000e-05       0.00000e+00       0.00000e+00       0.00000e+00
   13              -2.40000e-05      -8.00000e-06       1.20000e-04       0.00000e+00       0.00000e+00       0.00000e+00
   14              -2.40000e-05      -2.40000e-05       1.20000e-04       0.00000e+00       0.00000e+00       0.00000e+00
   15              -8.00000e-06      -2.40000e-05       1.20000e-04       0.00000e+00       0.00000e+00       0.00000e+00
   16              -8.00000e-06      -8.00000e-06       1.20000e-04       0.00000e+00       0.00000e+00       0.00000e+00

 S T R E S S  C A L C U L A T I O N S  F O R  E L E M E N T  G R O U P    1

  ELEMENT           STRESSxx           STRESSyy           STRESSzz           STRESSyz           STRESSzx           STRESSxy
  NUMBER
1   -2.77499e-15     9.51947e-16     4.00000e+01    -1.21833e-14     3.77345e-15    -1.06343e-14
     5.22655e-16    -1.07948e-15     4.00000e+01    -7.83709e-15     7.02359e-15    -3.02990e-15
    -4.72556e-15    -4.07537e-15     4.00000e+01    -9.93126e-15    -5.19982e-15     3.93248e-16
    -1.51628e-14    -2.37428e-14     4.00000e+01    -9.93846e-15    -2.21270e-15    -7.62649e-15
     2.60418e-14     2.36153e-14     4.00000e+01     2.96461e-15    -4.69504e-15    -5.73620e-15
    -2.74698e-14    -2.06661e-14     4.00000e+01    -4.62628e-15     4.97438e-15     6.18210e-16
     1.87622e-14     1.32589e-14     4.00000e+01     3.48886e-15    -3.50977e-15    -5.03370e-15
    -2.71680e-14    -3.80004e-14     4.00000e+01    -4.91659e-15     9.64363e-15    -1.56364e-15
2    8.88178e-15    -2.45906e-14     4.00000e+01    -1.51134e-14     7.50772e-15    -2.21084e-14
    -2.30926e-14    -3.76736e-15     4.00000e+01    -4.86487e-15    -1.30450e-14     4.08245e-15
    -9.88041e-15    -1.64057e-14     4.00000e+01    -8.20317e-15    -5.57384e-15    -7.43597e-15
     3.25096e-15     2.68788e-15     4.00000e+01    -3.93992e-15    -1.85997e-14    -5.89069e-15
     1.16568e-14     5.28210e-14     4.00000e+01     1.61343e-14    -4.94655e-14    -5.60915e-15
    -1.21327e-14    -1.42342e-14     4.00000e+01     7.87428e-15     9.52363e-15    -8.48669e-15
     8.88178e-15     7.71519e-15     4.00000e+01     6.72426e-15    -7.92405e-15    -7.59005e-15
    -2.30926e-14    -2.37662e-14     4.00000e+01    -1.15115e-15     1.97896e-14     5.24972e-16
3   -1.36478e-14    -7.75562e-15     4.00000e+01    -7.24924e-16    -1.00561e-15     1.33946e-14
     5.00397e-15     2.90252e-15     4.00000e+01     7.49653e-15    -3.17104e-14    -2.06095e-14
    -3.81404e-15    -1.61614e-14     4.00000e+01     2.90075e-15     2.19999e-14    -8.25842e-15
    -6.26851e-16    -1.60214e-15     4.00000e+01    -1.59950e-15     1.87784e-15     1.02765e-14
     1.00313e-14    -6.93121e-15     4.00000e+01    -6.91837e-15     9.30837e-15    -1.38350e-14
    -1.44722e-14    -1.08324e-14     4.00000e+01    -1.18273e-14     1.61078e-14     8.93039e-15
    -1.21094e-14    -4.67888e-15     4.00000e+01    -5.20783e-15    -1.83123e-14    -2.18137e-15
     6.54234e-15     5.97926e-15     4.00000e+01    -2.56297e-15    -1.82496e-14    -2.08018e-14
4    2.16522e-15    -6.17682e-15     4.00000e+01    -2.06793e-14     4.30085e-15    -5.62655e-15
    -5.82838e-15     1.65970e-14     4.00000e+01    -1.63117e-14     5.34478e-14     8.89773e-15
     2.14646e-16    -3.92449e-15     4.00000e+01    -1.01712e-14    -3.92370e-14     4.58437e-15
    -1.11575e-14    -8.09780e-15     4.00000e+01    -7.53841e-15    -7.48133e-16    -9.41725e-15
     2.02135e-14     3.14580e-14     4.00000e+01     1.59087e-14     1.61443e-14     3.22750e-14
    -3.88864e-16    -4.96338e-14     4.00000e+01     8.10515e-15    -1.02281e-13    -1.63399e-14
     1.29338e-14     2.30522e-14     4.00000e+01     7.83855e-15     1.05833e-13    -9.47248e-15
     4.94021e-15    -1.57088e-14     4.00000e+01     3.59473e-15    -1.93349e-15     1.19745e-14
5    7.54388e-16    -1.06240e-15     4.00000e+01    -8.84558e-15     5.76811e-15    -4.34541e-16
    -5.63083e-16    -1.20223e-14     4.00000e+01    -2.48841e-15     8.44645e-15    -1.31410e-14
    -3.84997e-14    -6.08971e-15     4.00000e+01    -9.75121e-15    -8.71845e-15    -3.18674e-16
     1.09195e-14     5.91549e-15     4.00000e+01    -6.99474e-15    -2.67172e-15    -1.06307e-14
     9.18979e-15     1.85242e-14     4.00000e+01     2.48965e-15    -1.73718e-14    -8.92393e-15
    -2.92586e-15    -9.46821e-15     4.00000e+01     2.39773e-15    -1.20942e-14     6.05102e-15
     3.92136e-14     8.16782e-15     4.00000e+01     1.17842e-14     2.11448e-15    -4.21148e-14
    -2.10145e-15    -1.81758e-14     4.00000e+01     6.18377e-16     2.10067e-15     4.53652e-14
6    3.04827e-14     1.95633e-14     4.00000e+01    -5.82708e-15     1.00435e-14    -3.54104e-15
    -2.58039e-14    -2.59547e-14     4.00000e+01    -8.23524e-15     2.37306e-14     1.35171e-14
     1.08961e-14     1.22836e-14     4.00000e+01    -3.20035e-15    -1.19490e-14     5.03586e-15
    -1.23707e-14    -1.44722e-14     4.00000e+01     5.89078e-16    -1.48472e-14    -1.72557e-14
     1.39729e-14     4.59177e-15     4.00000e+01     5.95610e-15    -2.00254e-14     1.27277e-14
    -6.37683e-17    -6.26851e-16     4.00000e+01     3.87295e-15    -1.44626e-14    -4.94875e-15
    -2.84668e-16     2.64119e-15     4.00000e+01     9.85950e-15     9.27435e-15    -1.20021e-14
     8.04029e-15     1.97559e-16     4.00000e+01     1.07279e-14     7.57770e-15     1.89014e-14
7   -1.16568e-14    -9.55532e-15     4.00000e+01    -2.74644e-15     5.39362e-15    -2.06723e-14
     1.63356e-14    -7.19254e-15     4.00000e+01    -9.75246e-15     9.77872e-15     4.18782e-14
    -9.98628e-16    -9.55532e-15     4.00000e+01    -1.55416e-14    -2.90174e-15     9.04975e-15
    -1.33864e-14    -1.67245e-14     4.00000e+01    -4.47208e-15    -8.19679e-15    -1.39666e-14
     2.05386e-14     1.04435e-14     4.00000e+01     6.38925e-15    -1.38626e-14     6.28927e-14
    -2.56934e-14    -9.03266e-15     4.00000e+01    -1.17483e-15    -7.23531e-15    -7.39630e-14
     9.88041e-15     1.04435e-14     4.00000e+01     1.26162e-14     9.81643e-15     3.93241e-14
    -2.12479e-15    -2.57743e-15     4.00000e+01     2.29179e-15     3.43294e-15     3.41892e-15


 S O L U T I O N   T I M E   L O G   I N   S E C 

     TIME FOR INPUT PHASE = 1.23000e-01
     TIME FOR CALCULATION OF STIFFNESS MATRIX = 8.00000e-03
     TIME FOR FACTORIZATION AND LOAD CASE SOLUTIONS = 7.80000e-02

     T O T A L   S O L U T I O N   T I M E = 4.18000e-01
